benchmarks/bfuzz0/2155128160292172268722289136372991617018.smt2
(set-logic QF_FP)
(declare-const x0 (_ FloatingPoint 11 53))
(declare-const x1 (_ FloatingPoint 11 53))
(declare-const x2 (_ FloatingPoint 11 53))
(declare-const x3 (_ FloatingPoint 11 53))
(declare-const x4 (_ FloatingPoint 11 53))
(declare-const x5 (_ FloatingPoint 11 53))
(declare-const x6 (_ FloatingPoint 11 53))
(declare-const x7 (_ FloatingPoint 11 53))
(declare-const x8 (_ FloatingPoint 11 53))
(declare-const x9 (_ FloatingPoint 11 53))
(declare-const x10 (_ FloatingPoint 11 53))
(declare-const x11 (_ FloatingPoint 11 53))
(declare-const x12 (_ FloatingPoint 11 53))
(assert (fp.eq (fp.sub RNE x5 x9) (fp.sub RNE x12 x2)))
(assert (fp.lt (fp.div RNE x5 x6) (fp.add RNE x1 x5)))
(assert (fp.eq (fp.mul RNE x6 x6) (fp.sub RNE x6 x9)))
(assert (fp.lt (fp.div RNE x3 x12) (fp.add RNE x0 x1)))
(assert (fp.gt (fp.div RNE x1 x11) (fp.add RNE x3 x6)))
(assert (fp.lt (fp.add RNE x12 x0) (fp.add RNE x8 x1)))
(assert (fp.eq (fp.sub RNE x1 x8) (fp.neg x9)))
(assert (fp.geq (fp.neg x9) (fp.add RNE x11 x5)))
(assert (fp.leq (fp.mul RNE x3 x10) (fp.div RNE x3 x2)))
(assert (fp.geq (fp.neg x0) (fp.add RNE x9 x9)))
(assert (fp.gt (fp.neg x9) (fp.add RNE x12 x6)))
(assert (fp.gt (fp.mul RNE x4 x12) (fp.sub RNE x3 x10)))
(assert (fp.eq (fp.mul RNE x8 x2) (fp.sub RNE x1 x2)))
(assert (fp.leq (fp.neg x3) (fp.mul RNE x1 x5)))
(assert (fp.gt (fp.neg x8) (fp.add RNE x0 x11)))
(assert (fp.leq (fp.neg x11) (fp.div RNE x5 x2)))
(assert (fp.eq (fp.add RNE x12 x0) (fp.add RNE x4 x6)))
(check-sat)
