db/data/2155128160292172268722289136372991617018.z3.out
-------------------
2500.119128902
